&CONTROL
  calculation = 'nscf',
  disk_io = 'medium',
  outdir = 'out/',
  prefix = 'agm001074044',
  pseudo_dir = '/usr/scratch4/magr4826/Promotion/Python/Code/HT_RPA/pseudo/SG15',
/
&SYSTEM
  celldm(1) = 8.630314263567293,
  celldm(3) = 3.3923767235611275,
  degauss = 0.0004593661607577953,
  ecutwfc = 65,
  force_symmorphic = .TRUE.,
  ibrav = 7,
  nbnd = 85,
  nosym = .FALSE.,
  occupations = 'fixed',
  smearing = 'gaussian',
  nat = 7,
  ntyp = 3,
/
&ELECTRONS
  conv_thr = 1d-10,
  diago_full_acc = .TRUE.,
  diago_thr_init = 5d-06,
  diagonalization = 'david',
/
&IONS
/
&CELL
/
ATOMIC_SPECIES
  As  74.9216 As.upf
  Ca  40.0780 Ca.upf
  O  15.9994 O.upf
ATOMIC_POSITIONS crystal
  Ca 0.00000000 0.82826505 0.82826497
  Ca 0.00000000 0.17173503 0.17173503
  Ca 0.49999996 0.50000004 0.00000000
  Ca 0.50000004 0.00000000 0.49999996
  As 0.00000000 0.63722129 0.63722122
  As 0.00000000 0.36277878 0.36277878
  O 0.00000000 0.00000000 0.00000000
K_POINTS crystal
216
0.015625 0.03125 0.046875 1.0
0.015625 0.03125 0.21354167 1.0
0.015625 0.03125 0.38020833 1.0
0.015625 0.03125 0.546875 1.0
0.015625 0.03125 0.71354167 1.0
0.015625 0.03125 0.88020833 1.0
0.015625 0.19791667 0.046875 1.0
0.015625 0.19791667 0.21354167 1.0
0.015625 0.19791667 0.38020833 1.0
0.015625 0.19791667 0.546875 1.0
0.015625 0.19791667 0.71354167 1.0
0.015625 0.19791667 0.88020833 1.0
0.015625 0.36458333 0.046875 1.0
0.015625 0.36458333 0.21354167 1.0
0.015625 0.36458333 0.38020833 1.0
0.015625 0.36458333 0.546875 1.0
0.015625 0.36458333 0.71354167 1.0
0.015625 0.36458333 0.88020833 1.0
0.015625 0.53125 0.046875 1.0
0.015625 0.53125 0.21354167 1.0
0.015625 0.53125 0.38020833 1.0
0.015625 0.53125 0.546875 1.0
0.015625 0.53125 0.71354167 1.0
0.015625 0.53125 0.88020833 1.0
0.015625 0.69791667 0.046875 1.0
0.015625 0.69791667 0.21354167 1.0
0.015625 0.69791667 0.38020833 1.0
0.015625 0.69791667 0.546875 1.0
0.015625 0.69791667 0.71354167 1.0
0.015625 0.69791667 0.88020833 1.0
0.015625 0.86458333 0.046875 1.0
0.015625 0.86458333 0.21354167 1.0
0.015625 0.86458333 0.38020833 1.0
0.015625 0.86458333 0.546875 1.0
0.015625 0.86458333 0.71354167 1.0
0.015625 0.86458333 0.88020833 1.0
0.18229167 0.03125 0.046875 1.0
0.18229167 0.03125 0.21354167 1.0
0.18229167 0.03125 0.38020833 1.0
0.18229167 0.03125 0.546875 1.0
0.18229167 0.03125 0.71354167 1.0
0.18229167 0.03125 0.88020833 1.0
0.18229167 0.19791667 0.046875 1.0
0.18229167 0.19791667 0.21354167 1.0
0.18229167 0.19791667 0.38020833 1.0
0.18229167 0.19791667 0.546875 1.0
0.18229167 0.19791667 0.71354167 1.0
0.18229167 0.19791667 0.88020833 1.0
0.18229167 0.36458333 0.046875 1.0
0.18229167 0.36458333 0.21354167 1.0
0.18229167 0.36458333 0.38020833 1.0
0.18229167 0.36458333 0.546875 1.0
0.18229167 0.36458333 0.71354167 1.0
0.18229167 0.36458333 0.88020833 1.0
0.18229167 0.53125 0.046875 1.0
0.18229167 0.53125 0.21354167 1.0
0.18229167 0.53125 0.38020833 1.0
0.18229167 0.53125 0.546875 1.0
0.18229167 0.53125 0.71354167 1.0
0.18229167 0.53125 0.88020833 1.0
0.18229167 0.69791667 0.046875 1.0
0.18229167 0.69791667 0.21354167 1.0
0.18229167 0.69791667 0.38020833 1.0
0.18229167 0.69791667 0.546875 1.0
0.18229167 0.69791667 0.71354167 1.0
0.18229167 0.69791667 0.88020833 1.0
0.18229167 0.86458333 0.046875 1.0
0.18229167 0.86458333 0.21354167 1.0
0.18229167 0.86458333 0.38020833 1.0
0.18229167 0.86458333 0.546875 1.0
0.18229167 0.86458333 0.71354167 1.0
0.18229167 0.86458333 0.88020833 1.0
0.34895833 0.03125 0.046875 1.0
0.34895833 0.03125 0.21354167 1.0
0.34895833 0.03125 0.38020833 1.0
0.34895833 0.03125 0.546875 1.0
0.34895833 0.03125 0.71354167 1.0
0.34895833 0.03125 0.88020833 1.0
0.34895833 0.19791667 0.046875 1.0
0.34895833 0.19791667 0.21354167 1.0
0.34895833 0.19791667 0.38020833 1.0
0.34895833 0.19791667 0.546875 1.0
0.34895833 0.19791667 0.71354167 1.0
0.34895833 0.19791667 0.88020833 1.0
0.34895833 0.36458333 0.046875 1.0
0.34895833 0.36458333 0.21354167 1.0
0.34895833 0.36458333 0.38020833 1.0
0.34895833 0.36458333 0.546875 1.0
0.34895833 0.36458333 0.71354167 1.0
0.34895833 0.36458333 0.88020833 1.0
0.34895833 0.53125 0.046875 1.0
0.34895833 0.53125 0.21354167 1.0
0.34895833 0.53125 0.38020833 1.0
0.34895833 0.53125 0.546875 1.0
0.34895833 0.53125 0.71354167 1.0
0.34895833 0.53125 0.88020833 1.0
0.34895833 0.69791667 0.046875 1.0
0.34895833 0.69791667 0.21354167 1.0
0.34895833 0.69791667 0.38020833 1.0
0.34895833 0.69791667 0.546875 1.0
0.34895833 0.69791667 0.71354167 1.0
0.34895833 0.69791667 0.88020833 1.0
0.34895833 0.86458333 0.046875 1.0
0.34895833 0.86458333 0.21354167 1.0
0.34895833 0.86458333 0.38020833 1.0
0.34895833 0.86458333 0.546875 1.0
0.34895833 0.86458333 0.71354167 1.0
0.34895833 0.86458333 0.88020833 1.0
0.515625 0.03125 0.046875 1.0
0.515625 0.03125 0.21354167 1.0
0.515625 0.03125 0.38020833 1.0
0.515625 0.03125 0.546875 1.0
0.515625 0.03125 0.71354167 1.0
0.515625 0.03125 0.88020833 1.0
0.515625 0.19791667 0.046875 1.0
0.515625 0.19791667 0.21354167 1.0
0.515625 0.19791667 0.38020833 1.0
0.515625 0.19791667 0.546875 1.0
0.515625 0.19791667 0.71354167 1.0
0.515625 0.19791667 0.88020833 1.0
0.515625 0.36458333 0.046875 1.0
0.515625 0.36458333 0.21354167 1.0
0.515625 0.36458333 0.38020833 1.0
0.515625 0.36458333 0.546875 1.0
0.515625 0.36458333 0.71354167 1.0
0.515625 0.36458333 0.88020833 1.0
0.515625 0.53125 0.046875 1.0
0.515625 0.53125 0.21354167 1.0
0.515625 0.53125 0.38020833 1.0
0.515625 0.53125 0.546875 1.0
0.515625 0.53125 0.71354167 1.0
0.515625 0.53125 0.88020833 1.0
0.515625 0.69791667 0.046875 1.0
0.515625 0.69791667 0.21354167 1.0
0.515625 0.69791667 0.38020833 1.0
0.515625 0.69791667 0.546875 1.0
0.515625 0.69791667 0.71354167 1.0
0.515625 0.69791667 0.88020833 1.0
0.515625 0.86458333 0.046875 1.0
0.515625 0.86458333 0.21354167 1.0
0.515625 0.86458333 0.38020833 1.0
0.515625 0.86458333 0.546875 1.0
0.515625 0.86458333 0.71354167 1.0
0.515625 0.86458333 0.88020833 1.0
0.68229167 0.03125 0.046875 1.0
0.68229167 0.03125 0.21354167 1.0
0.68229167 0.03125 0.38020833 1.0
0.68229167 0.03125 0.546875 1.0
0.68229167 0.03125 0.71354167 1.0
0.68229167 0.03125 0.88020833 1.0
0.68229167 0.19791667 0.046875 1.0
0.68229167 0.19791667 0.21354167 1.0
0.68229167 0.19791667 0.38020833 1.0
0.68229167 0.19791667 0.546875 1.0
0.68229167 0.19791667 0.71354167 1.0
0.68229167 0.19791667 0.88020833 1.0
0.68229167 0.36458333 0.046875 1.0
0.68229167 0.36458333 0.21354167 1.0
0.68229167 0.36458333 0.38020833 1.0
0.68229167 0.36458333 0.546875 1.0
0.68229167 0.36458333 0.71354167 1.0
0.68229167 0.36458333 0.88020833 1.0
0.68229167 0.53125 0.046875 1.0
0.68229167 0.53125 0.21354167 1.0
0.68229167 0.53125 0.38020833 1.0
0.68229167 0.53125 0.546875 1.0
0.68229167 0.53125 0.71354167 1.0
0.68229167 0.53125 0.88020833 1.0
0.68229167 0.69791667 0.046875 1.0
0.68229167 0.69791667 0.21354167 1.0
0.68229167 0.69791667 0.38020833 1.0
0.68229167 0.69791667 0.546875 1.0
0.68229167 0.69791667 0.71354167 1.0
0.68229167 0.69791667 0.88020833 1.0
0.68229167 0.86458333 0.046875 1.0
0.68229167 0.86458333 0.21354167 1.0
0.68229167 0.86458333 0.38020833 1.0
0.68229167 0.86458333 0.546875 1.0
0.68229167 0.86458333 0.71354167 1.0
0.68229167 0.86458333 0.88020833 1.0
0.84895833 0.03125 0.046875 1.0
0.84895833 0.03125 0.21354167 1.0
0.84895833 0.03125 0.38020833 1.0
0.84895833 0.03125 0.546875 1.0
0.84895833 0.03125 0.71354167 1.0
0.84895833 0.03125 0.88020833 1.0
0.84895833 0.19791667 0.046875 1.0
0.84895833 0.19791667 0.21354167 1.0
0.84895833 0.19791667 0.38020833 1.0
0.84895833 0.19791667 0.546875 1.0
0.84895833 0.19791667 0.71354167 1.0
0.84895833 0.19791667 0.88020833 1.0
0.84895833 0.36458333 0.046875 1.0
0.84895833 0.36458333 0.21354167 1.0
0.84895833 0.36458333 0.38020833 1.0
0.84895833 0.36458333 0.546875 1.0
0.84895833 0.36458333 0.71354167 1.0
0.84895833 0.36458333 0.88020833 1.0
0.84895833 0.53125 0.046875 1.0
0.84895833 0.53125 0.21354167 1.0
0.84895833 0.53125 0.38020833 1.0
0.84895833 0.53125 0.546875 1.0
0.84895833 0.53125 0.71354167 1.0
0.84895833 0.53125 0.88020833 1.0
0.84895833 0.69791667 0.046875 1.0
0.84895833 0.69791667 0.21354167 1.0
0.84895833 0.69791667 0.38020833 1.0
0.84895833 0.69791667 0.546875 1.0
0.84895833 0.69791667 0.71354167 1.0
0.84895833 0.69791667 0.88020833 1.0
0.84895833 0.86458333 0.046875 1.0
0.84895833 0.86458333 0.21354167 1.0
0.84895833 0.86458333 0.38020833 1.0
0.84895833 0.86458333 0.546875 1.0
0.84895833 0.86458333 0.71354167 1.0
0.84895833 0.86458333 0.88020833 1.0

